qbf_easy_train/easy_723_UNSAT.qdimacs
p cnf 22 49
a 9 20 17 0
e 1 2 3 4 5 6 7 8 10 11 12 13 14 15 16 18 19 21 22 0
-3 -1 0
-3 -2 0
1 2 3 0
6 4 0
6 -5 0
-4 5 -6 0
6 -7 0
-6 -7 0
-6 -8 -9 0
6 8 -9 0
-6 8 9 0
6 -8 9 0
11 -10 0
11 2 0
10 -2 -11 0
12 -11 0
12 -6 0
11 6 -12 0
-9 -12 -13 0
9 12 -13 0
-9 12 13 0
9 -12 13 0
15 -10 0
15 14 0
10 -14 -15 0
16 -14 0
16 -4 0
14 4 -16 0
18 16 0
18 -17 0
-16 17 -18 0
-15 18 -19 0
15 -18 -19 0
-15 -18 19 0
15 18 19 0
20 13 0
20 19 0
-13 -19 -20 0
21 -7 0
21 -20 0
7 20 -21 0
22 -3 0
22 -21 0
3 21 -22 0
15 -16 -5 -12 21 2 0
-2 -9 21 -15 8 5 0
-5 -13 -6 20 0
15 -2 16 10 -8 -1 4 0
22 0
