sat_easy_train/easy_723_UNSAT.dimacs
p cnf 122 408
3 -1 0
3 2 0
1 -2 -3 0
3 -4 0
-3 -4 0
-6 -4 0
-6 5 0
4 -5 6 0
-9 -7 0
-9 -8 0
7 8 9 0
7 9 -10 0
-7 -9 -10 0
7 -9 10 0
-7 9 10 0
11 -6 0
11 10 0
6 -10 -11 0
12 11 0
12 -7 0
-11 7 -12 0
13 -2 -14 0
-13 2 -14 0
13 2 14 0
-13 -2 14 0
-16 14 0
-16 -15 0
-14 15 16 0
-17 3 0
-17 -16 0
-3 16 17 0
-18 15 -19 0
18 -15 -19 0
-18 -15 19 0
18 15 19 0
21 19 0
21 -20 0
-19 20 -21 0
-22 21 0
-22 -16 0
-21 16 22 0
-25 -24 0
-25 2 0
24 -2 25 0
27 25 0
27 -26 0
-25 26 -27 0
-28 23 0
-28 27 0
-23 -27 28 0
-29 -22 0
-29 -28 0
22 28 29 0
19 -26 -30 0
-19 26 -30 0
19 26 30 0
-19 -26 30 0
-31 -10 0
-31 -26 0
10 26 31 0
-31 15 -32 0
31 -15 -32 0
-31 -15 32 0
31 15 32 0
34 -10 0
34 -33 0
10 33 -34 0
32 34 -35 0
-32 -34 -35 0
32 -34 35 0
-32 34 35 0
36 -30 0
36 -35 0
30 35 -36 0
-36 -37 -38 0
36 37 -38 0
-36 37 38 0
36 -37 38 0
-29 -38 -39 0
29 38 -39 0
-29 38 39 0
29 -38 39 0
40 -17 0
40 39 0
17 -39 -40 0
-41 12 0
-41 -40 0
-12 40 41 0
-42 -18 0
-42 6 0
18 -6 42 0
41 -42 -43 0
-41 42 -43 0
41 42 43 0
-41 -42 43 0
44 37 0
44 3 0
-37 -3 -44 0
45 33 0
45 26 0
-33 -26 -45 0
-45 15 -46 0
45 -15 -46 0
-45 -15 46 0
45 15 46 0
-18 46 -47 0
18 -46 -47 0
-18 -46 47 0
18 46 47 0
-48 -47 0
-48 -26 0
47 26 48 0
49 -5 0
49 -9 0
5 9 -49 0
-50 14 0
-50 -49 0
-14 49 50 0
51 35 0
51 -50 0
-35 50 -51 0
52 -48 0
52 -51 0
48 51 -52 0
-54 38 0
-54 -53 0
-38 53 54 0
55 52 0
55 54 0
-52 -54 -55 0
-56 -2 0
-56 -45 0
2 45 56 0
57 -56 0
57 31 0
56 -31 -57 0
-58 -5 0
-58 -27 0
5 27 58 0
-4 58 -59 0
4 -58 -59 0
-4 -58 59 0
4 58 59 0
60 57 0
60 59 0
-57 -59 -60 0
24 20 -61 0
-24 -20 -61 0
24 -20 61 0
-24 20 61 0
-62 -25 0
-62 32 0
25 -32 62 0
-63 -61 0
-63 62 0
61 -62 63 0
64 35 0
64 -34 0
-35 34 -64 0
-65 -8 0
-65 -10 0
8 10 65 0
66 -4 0
66 -47 0
4 47 -66 0
67 -65 0
67 66 0
65 -66 -67 0
-68 32 0
-68 -33 0
-32 33 68 0
-67 68 -69 0
67 -68 -69 0
-67 -68 69 0
67 68 69 0
70 64 0
70 69 0
-64 -69 -70 0
63 -70 -71 0
-63 70 -71 0
63 70 71 0
-63 -70 71 0
49 20 -72 0
-49 -20 -72 0
49 -20 72 0
-49 20 72 0
-73 9 0
-73 -72 0
-9 72 73 0
-73 20 -74 0
73 -20 -74 0
-73 -20 74 0
73 20 74 0
-11 -20 -75 0
11 20 -75 0
-11 20 75 0
11 -20 75 0
-76 74 0
-76 -75 0
-74 75 76 0
-22 -47 -77 0
22 47 -77 0
-22 47 77 0
22 -47 77 0
8 -21 -78 0
-8 21 -78 0
8 21 78 0
-8 -21 78 0
-23 -78 -79 0
23 78 -79 0
-23 78 79 0
23 -78 79 0
80 77 0
80 -79 0
-77 79 -80 0
81 -76 0
81 80 0
76 -80 -81 0
82 -71 0
82 81 0
71 -81 -82 0
-83 60 0
-83 82 0
-60 -82 83 0
-24 -20 -84 0
24 20 -84 0
-24 20 84 0
24 -20 84 0
-83 84 -85 0
83 -84 -85 0
-83 -84 85 0
83 84 85 0
-55 -85 -86 0
55 85 -86 0
-55 85 86 0
55 -85 86 0
87 -44 0
87 -86 0
44 86 -87 0
88 -43 0
88 -87 0
43 87 -88 0
-8 -14 -89 0
8 14 -89 0
-8 14 89 0
8 -14 89 0
-90 -13 0
-90 16 0
13 -16 90 0
90 -15 -91 0
-90 15 -91 0
90 15 91 0
-90 -15 91 0
-78 29 -92 0
78 -29 -92 0
-78 -29 92 0
78 29 92 0
46 -27 -93 0
-46 27 -93 0
46 27 93 0
-46 -27 93 0
94 38 0
94 -58 0
-38 58 -94 0
-95 -93 0
-95 94 0
93 -94 95 0
92 95 -96 0
-92 -95 -96 0
92 -95 96 0
-92 95 96 0
97 -91 0
97 -96 0
91 96 -97 0
33 30 -98 0
-33 -30 -98 0
33 -30 98 0
-33 30 98 0
-99 3 0
-99 30 0
-3 -30 99 0
100 -98 0
100 99 0
98 -99 -100 0
-7 -46 -101 0
7 46 -101 0
-7 46 101 0
7 -46 101 0
-103 102 0
-103 2 0
-102 -2 103 0
104 -101 0
104 -103 0
101 103 -104 0
105 100 0
105 -104 0
-100 104 -105 0
-106 -47 0
-106 -31 0
47 31 106 0
107 -72 0
107 26 0
72 -26 -107 0
-24 102 -108 0
24 -102 -108 0
-24 -102 108 0
24 102 108 0
109 -35 0
109 108 0
35 -108 -109 0
-107 109 -110 0
107 -109 -110 0
-107 -109 110 0
107 109 110 0
106 110 -111 0
-106 -110 -111 0
106 -110 111 0
-106 110 111 0
-36 -7 -112 0
36 7 -112 0
-36 7 112 0
36 -7 112 0
113 57 0
113 11 0
-57 -11 -113 0
-112 -113 -114 0
112 113 -114 0
-112 113 114 0
112 -113 114 0
-115 -111 0
-115 114 0
111 -114 115 0
116 -8 0
116 30 0
8 -30 -116 0
-116 -21 -117 0
116 21 -117 0
-116 21 117 0
116 -21 117 0
118 -115 0
118 -117 0
115 117 -118 0
119 105 0
119 -118 0
-105 118 -119 0
-120 -97 0
-120 119 0
97 -119 120 0
121 -89 0
121 -120 0
89 120 -121 0
-122 -88 0
-122 -121 0
88 121 122 0
-51 -91 -64 47 106 -103 0
-99 48 0
-59 -111 -83 -44 -122 25 0
71 -65 -46 0
88 100 105 116 0
82 65 -13 42 12 53 0
118 14 111 0
81 -44 64 89 16 -22 0
82 14 72 0
-44 4 0
23 40 7 -8 64 35 0
-111 -36 24 -20 0
-9 45 0
-98 -28 -31 0
42 33 88 -28 0
-33 -94 39 0
9 94 0
-113 20 111 68 0
-19 84 33 -52 -69 0
48 -14 -94 -96 108 0
30 -72 -19 -20 0
52 -119 21 0
-78 -69 0
-58 20 -44 0
-12 -7 -53 0
27 14 42 22 118 95 0
78 99 0
70 23 114 24 -31 0
10 15 0
76 -119 -85 39 29 0
63 13 0
100 -97 18 -45 -91 72 0
-92 -25 -82 42 4 -85 0
119 -31 -96 -99 -39 0
31 39 0
113 71 0
-46 29 65 18 0
-82 -63 -37 -18 0
56 -15 104 -73 0
78 20 4 -102 44 0
58 90 -41 -112 -50 0
-16 103 -46 36 0
43 -117 -37 77 68 -61 0
-34 57 0
80 -17 2 106 0
-91 -2 -53 24 0
-27 -69 0
-67 63 -7 21 0
43 79 24 -117 -25 44 0
41 57 5 0
55 70 0
53 -18 0
-57 48 43 -58 0
122 0
